c User generated cnf file
p cnf 15 43
4 -13 6 0 
8 10 -14 0 
-1 4 12 0 
10 8 -6 0 
12 -12 13 0 
11 -10 5 0 
-2 1 1 0 
-4 5 15 0 
9 11 -8 0 
12 8 -9 0 
-11 1 12 0 
-5 14 3 0 
9 14 -2 0 
15 -4 8 0 
9 11 -2 0 
-3 6 2 0 
5 8 -6 0 
4 -4 1 0 
9 -5 14 0 
1 5 -2 0 
6 14 -8 0 
9 7 -5 0 
-15 5 3 0 
-10 1 11 0 
9 8 -9 0 
3 -8 10 0 
4 13 -10 0 
-13 7 1 0 
8 6 -12 0 
14 9 -11 0 
-6 7 13 0 
10 -9 9 0 
15 -14 4 0 
3 -13 6 0 
5 9 -12 0 
9 -15 6 0 
10 -13 15 0 
-8 3 9 0 
15 -13 15 0 
-11 6 1 0 
5 4 -14 0 
-1 3 12 0 
15 -15 2 0 
